db/data/190042597531972312927955216931933225984.z3.out
-------------------
2500.156542414
